num_servers = 6;
sid = [0, 1, 2, 3, 4, 5];
scpu = [5, 5, 5, 5, 5, 2];
sram = [6, 12, 9, 9, 2, 4];

num_vms = 18;
vjob = [0, 1, 2, 3, 3, 3, 4, 5, 6, 6, 7, 7, 8, 8, 8, 8, 8, 8];
vindex = [0, 0, 0, 0, 1, 2, 0, 0, 0, 1, 0, 1, 0, 1, 2, 3, 4, 5];
vcpu = [1, 1, 2, 1, 1, 1, 1, 1, 1, 1, 1, 1, 1, 1, 1, 1, 2, 1];
vram = [1, 1, 2, 1, 1, 1, 1, 1, 1, 3, 4, 5, 1, 1, 1, 1, 1, 1];
vac = [true, true, true, true, true, true, true, true, true, true, true, true, true, true, true, true, true, true];
